benchmark/results/graph__10-1000-0.10-03_5/graph__10-1000-0.10-03_5_Quinton_Benders_primal_sub.lp
\ This file has been generated by DOcplex
\ ENCODING=ISO-8859-1
\Problem name: Quinton Benders_primal_sub

Maximize
 obj: tau
Subject To
 c1: tau <= 0.003424657534
 c2: y_a0_proc_0 + y_a0_proc_1 + y_a0_proc_2 - tau = 0
 c3: y_a0_proc_0 <= 1
 c4: y_a0_proc_1 <= 0
 c5: y_a0_proc_2 <= 0
 c6: tau <= 0.001443001443
 c7: y_a1_proc_0 + y_a1_proc_1 + y_a1_proc_2 - tau = 0
 c8: y_a1_proc_0 <= 0
 c9: y_a1_proc_1 <= 0
 c10: y_a1_proc_2 <= 1
 c11: tau <= 0.001801801802
 c12: y_a2_proc_0 + y_a2_proc_2 - tau = 0
 c13: y_a2_proc_0 <= 1
 c14: y_a2_proc_2 <= 0
 c15: tau <= 0.001915708812
 c16: y_a3_proc_0 + y_a3_proc_1 + y_a3_proc_2 - tau = 0
 c17: y_a3_proc_0 <= 0
 c18: y_a3_proc_1 <= 1
 c19: y_a3_proc_2 <= 0
 c20: tau <= 0.001036269430
 c21: y_a4_proc_0 + y_a4_proc_1 + y_a4_proc_2 - tau = 0
 c22: y_a4_proc_0 <= 0
 c23: y_a4_proc_1 <= 0
 c24: y_a4_proc_2 <= 1
 c25: tau <= 0.001367989056
 c26: y_a5_proc_0 + y_a5_proc_1 + y_a5_proc_2 - tau = 0
 c27: y_a5_proc_0 <= 0
 c28: y_a5_proc_1 <= 1
 c29: y_a5_proc_2 <= 0
 c30: tau <= 0.001650165017
 c31: y_a6_proc_0 + y_a6_proc_1 + y_a6_proc_2 - tau = 0
 c32: y_a6_proc_0 <= 1
 c33: y_a6_proc_1 <= 0
 c34: y_a6_proc_2 <= 0
 c35: tau <= 0.001041666667
 c36: y_a7_proc_0 + y_a7_proc_1 - tau = 0
 c37: y_a7_proc_0 <= 0
 c38: y_a7_proc_1 <= 1
 c39: tau <= 0.000930232558
 c40: y_a8_proc_0 + y_a8_proc_1 + y_a8_proc_2 - tau = 0
 c41: y_a8_proc_0 <= 0
 c42: y_a8_proc_1 <= 1
 c43: y_a8_proc_2 <= 0
 c44: tau <= 0.000896860987
 c45: y_a9_proc_0 + y_a9_proc_1 + y_a9_proc_2 - tau = 0
 c46: y_a9_proc_0 <= 0
 c47: y_a9_proc_1 <= 0
 c48: y_a9_proc_2 <= 1
 c49: u_a0 - u_a1 - 973 y_a1_proc_0 - 1137 y_a1_proc_1 - 693 y_a1_proc_2 >= 0
 c50: u_a2 - u_a1 - 973 y_a1_proc_0 - 1137 y_a1_proc_1 - 693 y_a1_proc_2 >= 0
 c51: u_a1 - u_a3 - 843 y_a3_proc_0 - 522 y_a3_proc_1 - 1235 y_a3_proc_2 >= -1
 c52: u_a4 - u_a0 - 292 y_a0_proc_0 - 890 y_a0_proc_1 - 949 y_a0_proc_2 >= 0
 c53: u_a5 - u_a2 - 555 y_a2_proc_0 - 907 y_a2_proc_2 >= 0
 c54: u_a3 - u_a6 - 606 y_a6_proc_0 - 829 y_a6_proc_1 - 956 y_a6_proc_2 >= 0
 c55: u_a6 - u_a7 - 1290 y_a7_proc_0 - 960 y_a7_proc_1 >= 0
 c56: u_a7 - u_a8 - 604 y_a8_proc_0 - 1075 y_a8_proc_1 - 460 y_a8_proc_2 >= 0
 c57: u_a9 - u_a4 - 982 y_a4_proc_0 - 1069 y_a4_proc_1 - 965 y_a4_proc_2 >= 0
 c58: u_a8 - u_a7 - 1290 y_a7_proc_0 - 960 y_a7_proc_1 >= -1
 c59: u_a7 - u_a9 - 1142 y_a9_proc_0 - 1294 y_a9_proc_1 - 1115 y_a9_proc_2 >= 0
 c60: u_a8 - u_a2 - 555 y_a2_proc_0 - 907 y_a2_proc_2 >= -1
 c61: u_a8 - u_a3 - 843 y_a3_proc_0 - 522 y_a3_proc_1 - 1235 y_a3_proc_2 >= -1
 c62: u_a3 - u_a9 - 1142 y_a9_proc_0 - 1294 y_a9_proc_1 - 1115 y_a9_proc_2 >= 0
 c63: u_a1 - u_a0 - 949 y_a0_proc_2 >= -2588
 c64: u_a1 - u_a0 - 292 y_a0_proc_0 >= -2588
 c65: u_a1 - u_a0 - 890 y_a0_proc_1 >= -3882
 c66: u_a0 - u_a1 - 693 y_a1_proc_2 >= -1
 c67: u_a0 - u_a1 - 973 y_a1_proc_0 >= -1
 c68: u_a0 - u_a1 - 1137 y_a1_proc_1 >= -1295
 c69: u_a2 - u_a0 - 949 y_a0_proc_2 >= -2588
 c70: u_a2 - u_a0 - 292 y_a0_proc_0 >= 0
 c71: u_a0 - u_a2 - 907 y_a2_proc_2 >= -2589
 c72: u_a0 - u_a2 - 555 y_a2_proc_0 >= -1
 c73: u_a3 - u_a0 - 949 y_a0_proc_2 >= -3882
 c74: u_a3 - u_a0 - 292 y_a0_proc_0 >= -2588
 c75: u_a3 - u_a0 - 890 y_a0_proc_1 >= -2588
 c76: u_a0 - u_a3 - 1235 y_a3_proc_2 >= -1295
 c77: u_a0 - u_a3 - 843 y_a3_proc_0 >= -1
 c78: u_a0 - u_a3 - 522 y_a3_proc_1 >= -1
 c79: u_a4 - u_a0 - 949 y_a0_proc_2 >= -2588
 c80: u_a4 - u_a0 - 292 y_a0_proc_0 >= -2588
 c81: u_a4 - u_a0 - 890 y_a0_proc_1 >= -3882
 c82: u_a0 - u_a4 - 965 y_a4_proc_2 >= -1
 c83: u_a0 - u_a4 - 982 y_a4_proc_0 >= -1
 c84: u_a0 - u_a4 - 1069 y_a4_proc_1 >= -1295
 c85: u_a5 - u_a0 - 949 y_a0_proc_2 >= -3579
 c86: u_a5 - u_a0 - 292 y_a0_proc_0 >= -2285
 c87: u_a5 - u_a0 - 890 y_a0_proc_1 >= -2285
 c88: u_a0 - u_a5 - 804 y_a5_proc_2 >= -1598
 c89: u_a0 - u_a5 - 1205 y_a5_proc_0 >= -304
 c90: u_a0 - u_a5 - 731 y_a5_proc_1 >= -304
 c91: u_a6 - u_a0 - 949 y_a0_proc_2 >= -2588
 c92: u_a6 - u_a0 - 292 y_a0_proc_0 >= 0
 c93: u_a6 - u_a0 - 890 y_a0_proc_1 >= -2588
 c94: u_a0 - u_a6 - 956 y_a6_proc_2 >= -2589
 c95: u_a0 - u_a6 - 606 y_a6_proc_0 >= -1
 c96: u_a0 - u_a6 - 829 y_a6_proc_1 >= -2589
 c97: u_a7 - u_a0 - 292 y_a0_proc_0 >= -2588
 c98: u_a7 - u_a0 - 890 y_a0_proc_1 >= -2588
 c99: u_a0 - u_a7 - 1290 y_a7_proc_0 >= -1
 c100: u_a0 - u_a7 - 960 y_a7_proc_1 >= -1
 c101: u_a8 - u_a0 - 949 y_a0_proc_2 >= -3882
 c102: u_a8 - u_a0 - 292 y_a0_proc_0 >= -2588
 c103: u_a8 - u_a0 - 890 y_a0_proc_1 >= -2588
 c104: u_a0 - u_a8 - 460 y_a8_proc_2 >= -1295
 c105: u_a0 - u_a8 - 604 y_a8_proc_0 >= -1
 c106: u_a0 - u_a8 - 1075 y_a8_proc_1 >= -1
 c107: u_a9 - u_a0 - 949 y_a0_proc_2 >= -2588
 c108: u_a9 - u_a0 - 292 y_a0_proc_0 >= -2588
 c109: u_a9 - u_a0 - 890 y_a0_proc_1 >= -3882
 c110: u_a0 - u_a9 - 1115 y_a9_proc_2 >= -1
 c111: u_a0 - u_a9 - 1142 y_a9_proc_0 >= -1
 c112: u_a0 - u_a9 - 1294 y_a9_proc_1 >= -1295
 c113: u_a2 - u_a1 - 693 y_a1_proc_2 >= 0
 c114: u_a2 - u_a1 - 973 y_a1_proc_0 >= 0
 c115: u_a1 - u_a2 - 907 y_a2_proc_2 >= -2589
 c116: u_a1 - u_a2 - 555 y_a2_proc_0 >= -2589
 c117: u_a3 - u_a1 - 693 y_a1_proc_2 >= -2588
 c118: u_a3 - u_a1 - 973 y_a1_proc_0 >= -3882
 c119: u_a3 - u_a1 - 1137 y_a1_proc_1 >= -2588
 c120: u_a1 - u_a3 - 1235 y_a3_proc_2 >= -1
 c121: u_a1 - u_a3 - 843 y_a3_proc_0 >= -1295
 c122: u_a1 - u_a3 - 522 y_a3_proc_1 >= -1
 c123: u_a4 - u_a1 - 693 y_a1_proc_2 >= 0
 c124: u_a4 - u_a1 - 973 y_a1_proc_0 >= -2588
 c125: u_a4 - u_a1 - 1137 y_a1_proc_1 >= -2588
 c126: u_a1 - u_a4 - 965 y_a4_proc_2 >= -1
 c127: u_a1 - u_a4 - 982 y_a4_proc_0 >= -2589
 c128: u_a1 - u_a4 - 1069 y_a4_proc_1 >= -2589
 c129: u_a5 - u_a1 - 693 y_a1_proc_2 >= -2285
 c130: u_a5 - u_a1 - 973 y_a1_proc_0 >= -3579
 c131: u_a5 - u_a1 - 1137 y_a1_proc_1 >= -2285
 c132: u_a1 - u_a5 - 804 y_a5_proc_2 >= -304
 c133: u_a1 - u_a5 - 1205 y_a5_proc_0 >= -1598
 c134: u_a1 - u_a5 - 731 y_a5_proc_1 >= -304
 c135: u_a6 - u_a1 - 693 y_a1_proc_2 >= -2588
 c136: u_a6 - u_a1 - 973 y_a1_proc_0 >= -2588
 c137: u_a6 - u_a1 - 1137 y_a1_proc_1 >= -3882
 c138: u_a1 - u_a6 - 956 y_a6_proc_2 >= -1
 c139: u_a1 - u_a6 - 606 y_a6_proc_0 >= -1
 c140: u_a1 - u_a6 - 829 y_a6_proc_1 >= -1295
 c141: u_a7 - u_a1 - 973 y_a1_proc_0 >= -3882
 c142: u_a7 - u_a1 - 1137 y_a1_proc_1 >= -2588
 c143: u_a1 - u_a7 - 1290 y_a7_proc_0 >= -1295
 c144: u_a1 - u_a7 - 960 y_a7_proc_1 >= -1
 c145: u_a8 - u_a1 - 693 y_a1_proc_2 >= -2548
 c146: u_a8 - u_a1 - 973 y_a1_proc_0 >= -3842
 c147: u_a8 - u_a1 - 1137 y_a1_proc_1 >= -2548
 c148: u_a1 - u_a8 - 460 y_a8_proc_2 >= -41
 c149: u_a1 - u_a8 - 604 y_a8_proc_0 >= -1335
 c150: u_a1 - u_a8 - 1075 y_a8_proc_1 >= -41
 c151: u_a9 - u_a1 - 693 y_a1_proc_2 >= 0
 c152: u_a9 - u_a1 - 973 y_a1_proc_0 >= -2588
 c153: u_a9 - u_a1 - 1137 y_a1_proc_1 >= -2588
 c154: u_a1 - u_a9 - 1115 y_a9_proc_2 >= -1
 c155: u_a1 - u_a9 - 1142 y_a9_proc_0 >= -2589
 c156: u_a1 - u_a9 - 1294 y_a9_proc_1 >= -2589
 c157: u_a3 - u_a2 - 907 y_a2_proc_2 >= -3883
 c158: u_a3 - u_a2 - 555 y_a2_proc_0 >= -2589
 c159: u_a2 - u_a3 - 1235 y_a3_proc_2 >= -1294
 c160: u_a2 - u_a3 - 843 y_a3_proc_0 >= 0
 c161: u_a4 - u_a2 - 907 y_a2_proc_2 >= -2589
 c162: u_a4 - u_a2 - 555 y_a2_proc_0 >= -2589
 c163: u_a2 - u_a4 - 965 y_a4_proc_2 >= 0
 c164: u_a2 - u_a4 - 982 y_a4_proc_0 >= 0
 c165: u_a5 - u_a2 - 907 y_a2_proc_2 >= -992
 c166: u_a5 - u_a2 - 555 y_a2_proc_0 >= 302
 c167: u_a2 - u_a5 - 804 y_a5_proc_2 >= -4185
 c168: u_a2 - u_a5 - 1205 y_a5_proc_0 >= -2891
 c169: u_a6 - u_a2 - 907 y_a2_proc_2 >= -2589
 c170: u_a6 - u_a2 - 555 y_a2_proc_0 >= -1
 c171: u_a2 - u_a6 - 956 y_a6_proc_2 >= -2588
 c172: u_a2 - u_a6 - 606 y_a6_proc_0 >= 0
 c173: u_a7 - u_a2 - 555 y_a2_proc_0 >= -1
 c174: u_a2 - u_a7 - 1290 y_a7_proc_0 >= -2588
 c175: u_a8 - u_a2 - 907 y_a2_proc_2 >= -3883
 c176: u_a8 - u_a2 - 555 y_a2_proc_0 >= -2589
 c177: u_a2 - u_a8 - 460 y_a8_proc_2 >= -1294
 c178: u_a2 - u_a8 - 604 y_a8_proc_0 >= 0
 c179: u_a9 - u_a2 - 907 y_a2_proc_2 >= -2589
 c180: u_a9 - u_a2 - 555 y_a2_proc_0 >= -2589
 c181: u_a2 - u_a9 - 1115 y_a9_proc_2 >= 0
 c182: u_a2 - u_a9 - 1142 y_a9_proc_0 >= 0
 c183: u_a4 - u_a3 - 1235 y_a3_proc_2 >= -2589
 c184: u_a4 - u_a3 - 843 y_a3_proc_0 >= -3883
 c185: u_a4 - u_a3 - 522 y_a3_proc_1 >= -2589
 c186: u_a3 - u_a4 - 965 y_a4_proc_2 >= 0
 c187: u_a3 - u_a4 - 982 y_a4_proc_0 >= -1294
 c188: u_a3 - u_a4 - 1069 y_a4_proc_1 >= 0
 c189: u_a5 - u_a3 - 1235 y_a3_proc_2 >= -2286
 c190: u_a5 - u_a3 - 843 y_a3_proc_0 >= -2286
 c191: u_a5 - u_a3 - 522 y_a3_proc_1 >= 302
 c192: u_a3 - u_a5 - 804 y_a5_proc_2 >= -2891
 c193: u_a3 - u_a5 - 1205 y_a5_proc_0 >= -2891
 c194: u_a3 - u_a5 - 731 y_a5_proc_1 >= -303
 c195: u_a6 - u_a3 - 1235 y_a3_proc_2 >= -3882
 c196: u_a6 - u_a3 - 843 y_a3_proc_0 >= -2588
 c197: u_a6 - u_a3 - 522 y_a3_proc_1 >= -2588
 c198: u_a3 - u_a6 - 956 y_a6_proc_2 >= -1295
 c199: u_a3 - u_a6 - 606 y_a6_proc_0 >= -1
 c200: u_a3 - u_a6 - 829 y_a6_proc_1 >= -1
 c201: u_a7 - u_a3 - 843 y_a3_proc_0 >= -2589
 c202: u_a7 - u_a3 - 522 y_a3_proc_1 >= -1
 c203: u_a3 - u_a7 - 1290 y_a7_proc_0 >= -2588
 c204: u_a3 - u_a7 - 960 y_a7_proc_1 >= 0
 c205: u_a8 - u_a3 - 1235 y_a3_proc_2 >= -2589
 c206: u_a8 - u_a3 - 843 y_a3_proc_0 >= -2589
 c207: u_a8 - u_a3 - 522 y_a3_proc_1 >= -1
 c208: u_a3 - u_a8 - 460 y_a8_proc_2 >= -2588
 c209: u_a3 - u_a8 - 604 y_a8_proc_0 >= -2588
 c210: u_a3 - u_a8 - 1075 y_a8_proc_1 >= 0
 c211: u_a9 - u_a3 - 1235 y_a3_proc_2 >= -2588
 c212: u_a9 - u_a3 - 843 y_a3_proc_0 >= -3882
 c213: u_a9 - u_a3 - 522 y_a3_proc_1 >= -2588
 c214: u_a3 - u_a9 - 1115 y_a9_proc_2 >= -1
 c215: u_a3 - u_a9 - 1142 y_a9_proc_0 >= -1295
 c216: u_a3 - u_a9 - 1294 y_a9_proc_1 >= -1
 c217: u_a5 - u_a4 - 965 y_a4_proc_2 >= -2285
 c218: u_a5 - u_a4 - 982 y_a4_proc_0 >= -3579
 c219: u_a5 - u_a4 - 1069 y_a4_proc_1 >= -2285
 c220: u_a4 - u_a5 - 804 y_a5_proc_2 >= -304
 c221: u_a4 - u_a5 - 1205 y_a5_proc_0 >= -1598
 c222: u_a4 - u_a5 - 731 y_a5_proc_1 >= -304
 c223: u_a6 - u_a4 - 965 y_a4_proc_2 >= -2588
 c224: u_a6 - u_a4 - 982 y_a4_proc_0 >= -2588
 c225: u_a6 - u_a4 - 1069 y_a4_proc_1 >= -3882
 c226: u_a4 - u_a6 - 956 y_a6_proc_2 >= -1
 c227: u_a4 - u_a6 - 606 y_a6_proc_0 >= -1
 c228: u_a4 - u_a6 - 829 y_a6_proc_1 >= -1295
 c229: u_a7 - u_a4 - 982 y_a4_proc_0 >= -3882
 c230: u_a7 - u_a4 - 1069 y_a4_proc_1 >= -2588
 c231: u_a4 - u_a7 - 1290 y_a7_proc_0 >= -1295
 c232: u_a4 - u_a7 - 960 y_a7_proc_1 >= -1
 c233: u_a8 - u_a4 - 965 y_a4_proc_2 >= -2588
 c234: u_a8 - u_a4 - 982 y_a4_proc_0 >= -3882
 c235: u_a8 - u_a4 - 1069 y_a4_proc_1 >= -2588
 c236: u_a4 - u_a8 - 460 y_a8_proc_2 >= -1
 c237: u_a4 - u_a8 - 604 y_a8_proc_0 >= -1295
 c238: u_a4 - u_a8 - 1075 y_a8_proc_1 >= -1
 c239: u_a9 - u_a4 - 965 y_a4_proc_2 >= 0
 c240: u_a9 - u_a4 - 982 y_a4_proc_0 >= -2588
 c241: u_a9 - u_a4 - 1069 y_a4_proc_1 >= -2588
 c242: u_a4 - u_a9 - 1115 y_a9_proc_2 >= -1
 c243: u_a4 - u_a9 - 1142 y_a9_proc_0 >= -2589
 c244: u_a4 - u_a9 - 1294 y_a9_proc_1 >= -2589
 c245: u_a6 - u_a5 - 804 y_a5_proc_2 >= -1597
 c246: u_a6 - u_a5 - 1205 y_a5_proc_0 >= -303
 c247: u_a6 - u_a5 - 731 y_a5_proc_1 >= -303
 c248: u_a5 - u_a6 - 956 y_a6_proc_2 >= -3580
 c249: u_a5 - u_a6 - 606 y_a6_proc_0 >= -2286
 c250: u_a5 - u_a6 - 829 y_a6_proc_1 >= -2286
 c251: u_a7 - u_a5 - 1205 y_a5_proc_0 >= -2891
 c252: u_a7 - u_a5 - 731 y_a5_proc_1 >= -303
 c253: u_a5 - u_a7 - 1290 y_a7_proc_0 >= -2286
 c254: u_a5 - u_a7 - 960 y_a7_proc_1 >= 302
 c255: u_a8 - u_a5 - 804 y_a5_proc_2 >= -2891
 c256: u_a8 - u_a5 - 1205 y_a5_proc_0 >= -2891
 c257: u_a8 - u_a5 - 731 y_a5_proc_1 >= -303
 c258: u_a5 - u_a8 - 460 y_a8_proc_2 >= -2286
 c259: u_a5 - u_a8 - 604 y_a8_proc_0 >= -2286
 c260: u_a5 - u_a8 - 1075 y_a8_proc_1 >= 302
 c261: u_a9 - u_a5 - 804 y_a5_proc_2 >= -2890
 c262: u_a9 - u_a5 - 1205 y_a5_proc_0 >= -4184
 c263: u_a9 - u_a5 - 731 y_a5_proc_1 >= -2890
 c264: u_a5 - u_a9 - 1115 y_a9_proc_2 >= 301
 c265: u_a5 - u_a9 - 1142 y_a9_proc_0 >= -993
 c266: u_a5 - u_a9 - 1294 y_a9_proc_1 >= 301
 c267: u_a7 - u_a6 - 606 y_a6_proc_0 >= -2588
 c268: u_a7 - u_a6 - 829 y_a6_proc_1 >= -2588
 c269: u_a6 - u_a7 - 1290 y_a7_proc_0 >= -1
 c270: u_a6 - u_a7 - 960 y_a7_proc_1 >= -1
 c271: u_a8 - u_a6 - 956 y_a6_proc_2 >= -3882
 c272: u_a8 - u_a6 - 606 y_a6_proc_0 >= -2588
 c273: u_a8 - u_a6 - 829 y_a6_proc_1 >= -2588
 c274: u_a6 - u_a8 - 460 y_a8_proc_2 >= -1295
 c275: u_a6 - u_a8 - 604 y_a8_proc_0 >= -1
 c276: u_a6 - u_a8 - 1075 y_a8_proc_1 >= -1
 c277: u_a9 - u_a6 - 956 y_a6_proc_2 >= -2589
 c278: u_a9 - u_a6 - 606 y_a6_proc_0 >= -2589
 c279: u_a9 - u_a6 - 829 y_a6_proc_1 >= -3883
 c280: u_a6 - u_a9 - 1115 y_a9_proc_2 >= 0
 c281: u_a6 - u_a9 - 1142 y_a9_proc_0 >= 0
 c282: u_a6 - u_a9 - 1294 y_a9_proc_1 >= -1294
 c283: u_a8 - u_a7 - 1290 y_a7_proc_0 >= -2589
 c284: u_a8 - u_a7 - 960 y_a7_proc_1 >= -1
 c285: u_a7 - u_a8 - 604 y_a8_proc_0 >= -2588
 c286: u_a7 - u_a8 - 1075 y_a8_proc_1 >= 0
 c287: u_a9 - u_a7 - 1290 y_a7_proc_0 >= -3882
 c288: u_a9 - u_a7 - 960 y_a7_proc_1 >= -2588
 c289: u_a7 - u_a9 - 1142 y_a9_proc_0 >= -1295
 c290: u_a7 - u_a9 - 1294 y_a9_proc_1 >= -1
 c291: u_a9 - u_a8 - 460 y_a8_proc_2 >= -2584
 c292: u_a9 - u_a8 - 604 y_a8_proc_0 >= -3878
 c293: u_a9 - u_a8 - 1075 y_a8_proc_1 >= -2584
 c294: u_a8 - u_a9 - 1115 y_a9_proc_2 >= -5
 c295: u_a8 - u_a9 - 1142 y_a9_proc_0 >= -1299
 c296: u_a8 - u_a9 - 1294 y_a9_proc_1 >= -5

Bounds
End
